\ Model Cl_45_Ins_6.lp
\ LP format - for model browsing. Use MPS format to capture full model detail.
Maximize
 
Subject To
 obj1: y[0] = 0
 obj2: y[1] = 0
 obj1_Exp: - y[0] + 98 x[0] + 98 x[1] + 97 x[2] + 97 x[3] + 90 x[4]
   + 90 x[5] + 88 x[6] + 86 x[7] + 84 x[8] + 84 x[9] + 82 x[10] + 80 x[11]
   + 80 x[12] + 78 x[13] + 74 x[14] + 74 x[15] + 69 x[16] + 65 x[17]
   + 65 x[18] + 61 x[19] + 59 x[20] + 59 x[21] + 58 x[22] + 55 x[23]
   + 51 x[24] + 47 x[25] + 45 x[26] + 42 x[27] + 42 x[28] + 39 x[29]
   + 38 x[30] + 34 x[31] + 33 x[32] + 32 x[33] + 30 x[34] + 28 x[35]
   + 25 x[36] + 21 x[37] + 21 x[38] + 19 x[39] + 15 x[40] + 12 x[41]
   + 9 x[42] + 8 x[43] + 3 x[44] = 0
 obj2_Exp: - y[1] + 85 x[0] + 32 x[1] + 41 x[2] + 5 x[3] + 54 x[4]
   + 37 x[5] + 62 x[6] + 65 x[7] + 61 x[8] + 9 x[9] + 82 x[10] + 91 x[11]
   + 88 x[12] + 61 x[13] + 40 x[14] + 59 x[15] + 95 x[16] + 73 x[17]
   + 32 x[18] + 71 x[19] + 45 x[20] + 74 x[21] + 33 x[22] + 85 x[23]
   + 30 x[24] + 64 x[25] + 73 x[26] + 75 x[27] + 94 x[28] + 12 x[29]
   + 25 x[30] + 28 x[31] + 12 x[32] + 14 x[33] + 20 x[34] + 64 x[35]
   + 84 x[36] + 72 x[37] + 40 x[38] + 65 x[39] + 9 x[40] + 60 x[41]
   + 99 x[42] + 93 x[43] + 42 x[44] = 0
 Budget: 108 x[0] + 108 x[1] + 107 x[2] + 107 x[3] + 100 x[4] + 100 x[5]
   + 98 x[6] + 96 x[7] + 94 x[8] + 94 x[9] + 92 x[10] + 90 x[11] + 90 x[12]
   + 88 x[13] + 84 x[14] + 84 x[15] + 79 x[16] + 75 x[17] + 75 x[18]
   + 71 x[19] + 69 x[20] + 69 x[21] + 68 x[22] + 65 x[23] + 61 x[24]
   + 57 x[25] + 55 x[26] + 52 x[27] + 52 x[28] + 49 x[29] + 48 x[30]
   + 44 x[31] + 43 x[32] + 42 x[33] + 40 x[34] + 38 x[35] + 35 x[36]
   + 31 x[37] + 31 x[38] + 29 x[39] + 25 x[40] + 22 x[41] + 19 x[42]
   + 18 x[43] + 13 x[44] <= 1444
Bounds
Binaries
 x[0] x[1] x[2] x[3] x[4] x[5] x[6] x[7] x[8] x[9] x[10] x[11] x[12] x[13]
 x[14] x[15] x[16] x[17] x[18] x[19] x[20] x[21] x[22] x[23] x[24] x[25]
 x[26] x[27] x[28] x[29] x[30] x[31] x[32] x[33] x[34] x[35] x[36] x[37]
 x[38] x[39] x[40] x[41] x[42] x[43] x[44]
Generals
 y[0] y[1]
End
